Route #1: 89 60 5 84 17 86 38 14 44 16 61 99 6
Route #2: 96 59 93 85 91 100 98 37 92 97 95 94
Route #3: 13 87 42 43 15 57 41 22 74 72 73 21 40 53
Route #4: 26 54 55 25 4 39 67 23 56 75 2 58
Route #5: 28 76 77 3 79 78 34 29 24 68 80 12
Route #6: 50 33 81 51 9 35 65 71 66 20 30 70 1 69
Route #7: 27 88 62 11 19 48 82 7 52
Route #8: 18 83 45 8 46 47 36 49 64 63 90 32 10 31
Cost 819
Time 0.151936
